NAME : local_4
TYPE : ATSP
DIMENSION : 6
EDGE_WEIGHT_TYPE : EXPLICIT
EDGE_WEIGHT_FORMAT : FULL_MATRIX
EDGE_WEIGHT_SECTION
0 10000000 712 10000000 749 10000000 
0 0 10000000 416 10000000 754 
0 10000000 0 10000000 193 572 
0 416 10000000 0 10000000 796 
0 10000000 193 10000000 0 686 
0 10000000 10000000 10000000 10000000 0 
EOF